38965
1 0 1 1 1 1 0 0 1 0 1 1 1 0 0 0 0 0 1 1 0 1 0 0 1 1 0 1 1 0
18 28 2 27 2 12 21 27 18 28 4 28 3 3 28 18 3 10 27 0 18 21 5 24 0 18 27 19 4 2 19 19 4 21 27 12 8 8 24 21 18 8 12 4 8 19 3 21 19 5 24 24 24 21 8 12 11 8 18 25 4 0 18 8 3 11 5 19 28 25 18 12 19 8 5 10 10 5 8 24 10 0 19 25 4 3 19 5 27 25 28 28 25 25 2 3 11 11 0 28 28 21 25 18 4 0 4 24 27 3 19 4 27 12 12 8 28 25 0 8 10 11 28 19 4 21 2 11 4 0 28 24 25 10 5 8 3 3 28 10 12 27 11 11 25 5 24 21 27 25 24 0 10 0 8 11 2 21 3 3 3 27 10 24 5 27 5 4 3 21 5 10 19 28 4 2 0 10 12 10 2 21 2 28 11 8 11 3 0 2 2 21 12 12 25 12 25 21 2 19
